NAME : single
TYPE : ATSP
DIMENSION : 6
EDGE_WEIGHT_TYPE : EXPLICIT
EDGE_WEIGHT_FORMAT : FULL_MATRIX
EDGE_WEIGHT_SECTION
0 730 354 333 705 50458 
0 0 451 408 183 50000 
0 451 0 155 419 50000 
0 408 155 0 378 50000 
0 183 419 378 0 50000 
0 50000 50000 50000 50000 0 
EOF